NAME /Users/henri/Research/solvers/instances/idol-instances/robust/collection/cbp_Subramanyam_et_al_2020/CapBud_N25_15/models/uncertain_technology_matrix/
ROWS
 N  OBJ
 L  capacity
 L  c_4655
 L  c_4656
 L  c_4657
 L  c_4658
 L  c_4659
 L  c_4660
 L  c_4661
 L  c_4662
 L  c_4663
 L  c_4664
 L  c_4665
 L  c_4666
 L  c_4667
 L  c_4668
 L  c_4669
 L  c_4670
 L  c_4671
 L  c_4672
 L  c_4673
 L  c_4674
 L  c_4675
 L  c_4676
 L  c_4677
 L  c_4678
 L  c_4679
COLUMNS
    MARKER    'MARKER'                 'INTORG'
    x_0        OBJ        -4.87102
    x_0        c_4655     1
    x_0        capacity   0.974203
    x_1        OBJ        -2.57297
    x_1        c_4656     1
    x_1        capacity   0.514595
    x_2        OBJ        -0.860039
    x_2        c_4657     1
    x_2        capacity   0.172008
    x_3        OBJ        -8.31168
    x_3        c_4658     1
    x_3        capacity   1.66234
    x_4        OBJ        -8.14026
    x_4        c_4659     1
    x_4        capacity   1.62805
    x_5        OBJ        -4.08722
    x_5        c_4660     1
    x_5        capacity   0.817443
    x_6        OBJ        -1.76387
    x_6        c_4661     1
    x_6        capacity   0.352774
    x_7        OBJ        -4.53198
    x_7        c_4662     1
    x_7        capacity   0.906395
    x_8        OBJ        -2.86855
    x_8        c_4663     1
    x_8        capacity   0.573709
    x_9        OBJ        -5.08854
    x_9        c_4664     1
    x_9        capacity   1.01771
    x_10       OBJ        -4.19311
    x_10       c_4665     1
    x_10       capacity   0.838621
    x_11       OBJ        -5.50343
    x_11       c_4666     1
    x_11       capacity   1.10069
    x_12       OBJ        -6.45017
    x_12       c_4667     1
    x_12       capacity   1.29003
    x_13       OBJ        -2.52659
    x_13       c_4668     1
    x_13       capacity   0.505318
    x_14       OBJ        -4.35118
    x_14       c_4669     1
    x_14       capacity   0.870236
    x_15       OBJ        -5.41298
    x_15       c_4670     1
    x_15       capacity   1.0826
    x_16       OBJ        -1.56157
    x_16       c_4671     1
    x_16       capacity   0.312315
    x_17       OBJ        -4.42981
    x_17       c_4672     1
    x_17       capacity   0.885961
    x_18       OBJ        -3.25098
    x_18       c_4673     1
    x_18       capacity   0.650196
    x_19       OBJ        -7.57495
    x_19       c_4674     1
    x_19       capacity   1.51499
    x_20       OBJ        -3.67075
    x_20       c_4675     1
    x_20       capacity   0.734149
    x_21       OBJ        -1.98445
    x_21       c_4676     1
    x_21       capacity   0.39689
    x_22       OBJ        -2.18571
    x_22       c_4677     1
    x_22       capacity   0.437142
    x_23       OBJ        -3.92212
    x_23       c_4678     1
    x_23       capacity   0.784423
    x_24       OBJ        -5.24289
    x_24       c_4679     1
    x_24       capacity   1.04858
    y_0        OBJ        -3.89681
    y_0        c_4655     1
    y_0        capacity   0.974203
    y_1        OBJ        -2.05838
    y_1        c_4656     1
    y_1        capacity   0.514595
    y_2        OBJ        -0.688032
    y_2        c_4657     1
    y_2        capacity   0.172008
    y_3        OBJ        -6.64935
    y_3        c_4658     1
    y_3        capacity   1.66234
    y_4        OBJ        -6.51221
    y_4        c_4659     1
    y_4        capacity   1.62805
    y_5        OBJ        -3.26977
    y_5        c_4660     1
    y_5        capacity   0.817443
    y_6        OBJ        -1.4111
    y_6        c_4661     1
    y_6        capacity   0.352774
    y_7        OBJ        -3.62558
    y_7        c_4662     1
    y_7        capacity   0.906395
    y_8        OBJ        -2.29484
    y_8        c_4663     1
    y_8        capacity   0.573709
    y_9        OBJ        -4.07083
    y_9        c_4664     1
    y_9        capacity   1.01771
    y_10       OBJ        -3.35448
    y_10       c_4665     1
    y_10       capacity   0.838621
    y_11       OBJ        -4.40275
    y_11       c_4666     1
    y_11       capacity   1.10069
    y_12       OBJ        -5.16014
    y_12       c_4667     1
    y_12       capacity   1.29003
    y_13       OBJ        -2.02127
    y_13       c_4668     1
    y_13       capacity   0.505318
    y_14       OBJ        -3.48094
    y_14       c_4669     1
    y_14       capacity   0.870236
    y_15       OBJ        -4.33038
    y_15       c_4670     1
    y_15       capacity   1.0826
    y_16       OBJ        -1.24926
    y_16       c_4671     1
    y_16       capacity   0.312315
    y_17       OBJ        -3.54385
    y_17       c_4672     1
    y_17       capacity   0.885961
    y_18       OBJ        -2.60079
    y_18       c_4673     1
    y_18       capacity   0.650196
    y_19       OBJ        -6.05996
    y_19       c_4674     1
    y_19       capacity   1.51499
    y_20       OBJ        -2.9366
    y_20       c_4675     1
    y_20       capacity   0.734149
    y_21       OBJ        -1.58756
    y_21       c_4676     1
    y_21       capacity   0.39689
    y_22       OBJ        -1.74857
    y_22       c_4677     1
    y_22       capacity   0.437142
    y_23       OBJ        -3.13769
    y_23       c_4678     1
    y_23       capacity   0.784423
    y_24       OBJ        -4.19431
    y_24       c_4679     1
    y_24       capacity   1.04858
    MARKER    'MARKER'                 'INTEND'
RHS
    RHS       capacity   52.6784
    RHS       c_4655     1
    RHS       c_4656     1
    RHS       c_4657     1
    RHS       c_4658     1
    RHS       c_4659     1
    RHS       c_4660     1
    RHS       c_4661     1
    RHS       c_4662     1
    RHS       c_4663     1
    RHS       c_4664     1
    RHS       c_4665     1
    RHS       c_4666     1
    RHS       c_4667     1
    RHS       c_4668     1
    RHS       c_4669     1
    RHS       c_4670     1
    RHS       c_4671     1
    RHS       c_4672     1
    RHS       c_4673     1
    RHS       c_4674     1
    RHS       c_4675     1
    RHS       c_4676     1
    RHS       c_4677     1
    RHS       c_4678     1
    RHS       c_4679     1
BOUNDS
 LI BND       x_0        0
 UI BND       x_0        1
 LI BND       x_1        0
 UI BND       x_1        1
 LI BND       x_2        0
 UI BND       x_2        1
 LI BND       x_3        0
 UI BND       x_3        1
 LI BND       x_4        0
 UI BND       x_4        1
 LI BND       x_5        0
 UI BND       x_5        1
 LI BND       x_6        0
 UI BND       x_6        1
 LI BND       x_7        0
 UI BND       x_7        1
 LI BND       x_8        0
 UI BND       x_8        1
 LI BND       x_9        0
 UI BND       x_9        1
 LI BND       x_10       0
 UI BND       x_10       1
 LI BND       x_11       0
 UI BND       x_11       1
 LI BND       x_12       0
 UI BND       x_12       1
 LI BND       x_13       0
 UI BND       x_13       1
 LI BND       x_14       0
 UI BND       x_14       1
 LI BND       x_15       0
 UI BND       x_15       1
 LI BND       x_16       0
 UI BND       x_16       1
 LI BND       x_17       0
 UI BND       x_17       1
 LI BND       x_18       0
 UI BND       x_18       1
 LI BND       x_19       0
 UI BND       x_19       1
 LI BND       x_20       0
 UI BND       x_20       1
 LI BND       x_21       0
 UI BND       x_21       1
 LI BND       x_22       0
 UI BND       x_22       1
 LI BND       x_23       0
 UI BND       x_23       1
 LI BND       x_24       0
 UI BND       x_24       1
 LI BND       y_0        0
 UI BND       y_0        1
 LI BND       y_1        0
 UI BND       y_1        1
 LI BND       y_2        0
 UI BND       y_2        1
 LI BND       y_3        0
 UI BND       y_3        1
 LI BND       y_4        0
 UI BND       y_4        1
 LI BND       y_5        0
 UI BND       y_5        1
 LI BND       y_6        0
 UI BND       y_6        1
 LI BND       y_7        0
 UI BND       y_7        1
 LI BND       y_8        0
 UI BND       y_8        1
 LI BND       y_9        0
 UI BND       y_9        1
 LI BND       y_10       0
 UI BND       y_10       1
 LI BND       y_11       0
 UI BND       y_11       1
 LI BND       y_12       0
 UI BND       y_12       1
 LI BND       y_13       0
 UI BND       y_13       1
 LI BND       y_14       0
 UI BND       y_14       1
 LI BND       y_15       0
 UI BND       y_15       1
 LI BND       y_16       0
 UI BND       y_16       1
 LI BND       y_17       0
 UI BND       y_17       1
 LI BND       y_18       0
 UI BND       y_18       1
 LI BND       y_19       0
 UI BND       y_19       1
 LI BND       y_20       0
 UI BND       y_20       1
 LI BND       y_21       0
 UI BND       y_21       1
 LI BND       y_22       0
 UI BND       y_22       1
 LI BND       y_23       0
 UI BND       y_23       1
 LI BND       y_24       0
 UI BND       y_24       1
ENDATA
